GeneratedInstances/LBS14_11.param
$ LBS instance with n = 14, seed = 11
letting cards be [14,33,13,1,37,47,0,45,2,38,12,7,39,8]
